<?xml version = "1.0" standalone="yes"?>
<!-- This file has been generated by DOcplex version 2.23.222  -->
<CPLEXSolution version="1.0">
 <header
   problemName="CVRP"
   objectiveValue="18599.7"
  />
 <variables>
  <variable name="x_0_2" index="1" value="1.00000"/>
  <variable name="x_0_3" index="2" value="1.00000"/>
  <variable name="x_0_4" index="3" value="1.00000"/>
  <variable name="x_0_7" index="6" value="1.00000"/>
  <variable name="x_0_8" index="7" value="1.00000"/>
  <variable name="x_0_11" index="10" value="1.00000"/>
  <variable name="x_0_12" index="11" value="1.00000"/>
  <variable name="x_0_14" index="13" value="1.00000"/>
  <variable name="x_0_15" index="14" value="1.00000"/>
  <variable name="x_0_16" index="15" value="1.00000"/>
  <variable name="x_0_17" index="16" value="1.00000"/>
  <variable name="x_0_19" index="18" value="1.00000"/>
  <variable name="x_0_21" index="20" value="1.00000"/>
  <variable name="x_0_22" index="21" value="1.00000"/>
  <variable name="x_0_23" index="22" value="1.00000"/>
  <variable name="x_1_5" index="31" value="1.00000"/>
  <variable name="x_2_0" index="54" value="1.00000"/>
  <variable name="x_3_0" index="81" value="1.00000"/>
  <variable name="x_4_25" index="132" value="1.00000"/>
  <variable name="x_5_26" index="160" value="1.00000"/>
  <variable name="x_6_0" index="162" value="1.00000"/>
  <variable name="x_7_0" index="189" value="1.00000"/>
  <variable name="x_8_0" index="216" value="1.00000"/>
  <variable name="x_9_13" index="255" value="1.00000"/>
  <variable name="x_10_0" index="270" value="1.00000"/>
  <variable name="x_11_20" index="316" value="1.00000"/>
  <variable name="x_12_1" index="325" value="1.00000"/>
  <variable name="x_13_0" index="351" value="1.00000"/>
  <variable name="x_14_9" index="387" value="1.00000"/>
  <variable name="x_15_24" index="428" value="1.00000"/>
  <variable name="x_16_27" index="458" value="1.00000"/>
  <variable name="x_17_0" index="459" value="1.00000"/>
  <variable name="x_18_6" index="492" value="1.00000"/>
  <variable name="x_19_0" index="513" value="1.00000"/>
  <variable name="x_20_0" index="540" value="1.00000"/>
  <variable name="x_21_18" index="585" value="1.00000"/>
  <variable name="x_22_0" index="594" value="1.00000"/>
  <variable name="x_23_10" index="631" value="1.00000"/>
  <variable name="x_24_0" index="648" value="1.00000"/>
  <variable name="x_25_0" index="675" value="1.00000"/>
  <variable name="x_26_0" index="702" value="1.00000"/>
  <variable name="x_27_0" index="729" value="1.00000"/>
  <variable name="u_1" index="756" value="21.00000"/>
  <variable name="u_2" index="757" value="47.00000"/>
  <variable name="u_3" index="758" value="41.00000"/>
  <variable name="u_4" index="759" value="6.00000"/>
  <variable name="u_5" index="760" value="43.00000"/>
  <variable name="u_6" index="761" value="47.00000"/>
  <variable name="u_7" index="762" value="43.00000"/>
  <variable name="u_8" index="763" value="47.00000"/>
  <variable name="u_9" index="764" value="35.00000"/>
  <variable name="u_10" index="765" value="47.00000"/>
  <variable name="u_11" index="766" value="11.00000"/>
  <variable name="u_12" index="767" value="12.00000"/>
  <variable name="u_13" index="768" value="47.00000"/>
  <variable name="u_14" index="769" value="18.00000"/>
  <variable name="u_15" index="770" value="17.00000"/>
  <variable name="u_16" index="771" value="36.00000"/>
  <variable name="u_17" index="772" value="47.00000"/>
  <variable name="u_18" index="773" value="22.00000"/>
  <variable name="u_19" index="774" value="31.00000"/>
  <variable name="u_20" index="775" value="47.00000"/>
  <variable name="u_21" index="776" value="7.00000"/>
  <variable name="u_22" index="777" value="43.00000"/>
  <variable name="u_23" index="778" value="9.00000"/>
  <variable name="u_24" index="779" value="44.00000"/>
  <variable name="u_25" index="780" value="47.00000"/>
  <variable name="u_26" index="781" value="47.00000"/>
  <variable name="u_27" index="782" value="46.00000"/>
 </variables>
</CPLEXSolution>
